presolving:
(round 1, fast)       654 del vars, 0 del conss, 0 add conss, 0 chg bounds, 0 chg sides, 0 chg coeffs, 0 upgd conss, 0 impls, 214839 clqs
(round 2, exhaustive) 654 del vars, 0 del conss, 0 add conss, 0 chg bounds, 0 chg sides, 0 chg coeffs, 214839 upgd conss, 0 impls, 214839 clqs
   (17.0s) probing: 51/427062 (0.0%) - 0 fixings, 0 aggregations, 0 implications, 0 bound changes
   (17.0s) probing aborted: 50/50 successive totally useless probings
   Deactivated symmetry handling methods, since SCIP was built without symmetry detector (SYM=none).
presolving (3 rounds: 3 fast, 2 medium, 2 exhaustive):
 654 deleted vars, 0 deleted constraints, 0 added constraints, 0 tightened bounds, 0 added holes, 0 changed sides, 0 changed coefficients
 0 implications, 214839 cliques
presolved problem has 427062 variables (427062 bin, 0 int, 0 impl, 0 cont) and 214839 constraints
 214839 constraints of type <setppc>
Presolving Time: 17.00

 time | node  | left  |LP iter|LP it/n|mem/heur|mdpt |vars |cons |rows |cuts |sepa|confs|strbr|  dualbound   | primalbound  |  gap   | compl. 
p23.0s|     1 |     0 |     0 |     - |  clique|   0 | 427k| 214k|1308 |   0 |  0 |   0 |   0 | 0.000000e+00 | 4.483181e+04 |    Inf | unknown
 48.0s|     1 |     0 |  1356 |     - |  2379M |   0 | 427k| 214k|1308 |   0 |  0 |  12 |   0 | 2.350761e+04 | 4.483181e+04 |  90.71%| unknown
 49.0s|     1 |     0 |  1671 |     - |  2379M |   0 | 427k| 214k|1472 | 164 |  1 |  12 |   0 | 2.808190e+04 | 4.483181e+04 |  59.65%| unknown
 55.0s|     1 |     0 |  1753 |     - |  2432M |   0 | 427k| 214k|1520 | 212 |  2 |  12 |   0 | 2.858570e+04 | 4.483181e+04 |  56.83%| unknown
 62.0s|     1 |     0 |  1766 |     - |  2461M |   0 | 427k| 214k|1529 | 221 |  3 |  12 |   0 | 2.858586e+04 | 4.483181e+04 |  56.83%| unknown
 71.0s|     1 |     0 |  1783 |     - |  2479M |   0 | 427k| 214k|1541 | 233 |  4 |  12 |   0 | 2.858586e+04 | 4.483181e+04 |  56.83%| unknown
 83.0s|     1 |     0 |  1816 |     - |  2508M |   0 | 427k| 214k|1562 | 254 |  5 |  12 |   0 | 2.858846e+04 | 4.483181e+04 |  56.82%| unknown
 95.0s|     1 |     0 |  1833 |     - |  2553M |   0 | 427k| 214k|1578 | 270 |  6 |  12 |   0 | 2.859367e+04 | 4.483181e+04 |  56.79%| unknown
  104s|     1 |     0 |  1854 |     - |  2561M |   0 | 427k| 214k|1594 | 286 |  7 |  12 |   0 | 2.861403e+04 | 4.483181e+04 |  56.68%| unknown
  112s|     1 |     0 |  1872 |     - |  2582M |   0 | 427k| 214k|1603 | 295 |  8 |  12 |   0 | 2.862081e+04 | 4.483181e+04 |  56.64%| unknown
  120s|     1 |     0 |  1880 |     - |  2615M |   0 | 427k| 214k|1614 | 306 |  9 |  12 |   0 | 2.863762e+04 | 4.483181e+04 |  56.55%| unknown
  127s|     1 |     0 |  1893 |     - |  2621M |   0 | 427k| 214k|1620 | 312 | 10 |  12 |   0 | 2.863857e+04 | 4.483181e+04 |  56.54%| unknown
  135s|     1 |     0 |  1915 |     - |  2657M |   0 | 427k| 214k|1584 | 323 | 11 |  12 |   0 | 2.865566e+04 | 4.483181e+04 |  56.45%| unknown
  138s|     1 |     0 |  1925 |     - |  2675M |   0 | 427k| 214k|1590 | 329 | 12 |  12 |   0 | 2.866041e+04 | 4.483181e+04 |  56.42%| unknown
  140s|     1 |     0 |  1933 |     - |  2686M |   0 | 427k| 214k|1593 | 332 | 13 |  12 |   0 | 2.866122e+04 | 4.483181e+04 |  56.42%| unknown
 time | node  | left  |LP iter|LP it/n|mem/heur|mdpt |vars |cons |rows |cuts |sepa|confs|strbr|  dualbound   | primalbound  |  gap   | compl. 
  142s|     1 |     0 |  1951 |     - |  2689M |   0 | 427k| 214k|1599 | 338 | 14 |  12 |   0 | 2.866914e+04 | 4.483181e+04 |  56.38%| unknown
  144s|     1 |     0 |  1952 |     - |  2693M |   0 | 427k| 214k|1602 | 341 | 15 |  12 |   0 | 2.867081e+04 | 4.483181e+04 |  56.37%| unknown
  146s|     1 |     0 |  1960 |     - |  2693M |   0 | 427k| 214k|1605 | 344 | 16 |  12 |   0 | 2.867081e+04 | 4.483181e+04 |  56.37%| unknown
  150s|     1 |     0 |  1971 |     - |  2693M |   0 | 427k| 214k|1589 | 350 | 17 |  12 |   0 | 2.867081e+04 | 4.483181e+04 |  56.37%| unknown
  152s|     1 |     0 |  1975 |     - |  2693M |   0 | 427k| 214k|1592 | 353 | 18 |  12 |   0 | 2.867081e+04 | 4.483181e+04 |  56.37%| unknown
  153s|     1 |     0 |  1985 |     - |  2694M |   0 | 427k| 214k|1596 | 357 | 19 |  12 |   0 | 2.867081e+04 | 4.483181e+04 |  56.37%| unknown
  155s|     1 |     0 |  1989 |     - |  2694M |   0 | 427k| 214k|1598 | 359 | 20 |  12 |   0 | 2.867081e+04 | 4.483181e+04 |  56.37%| unknown
  157s|     1 |     0 |  1997 |     - |  2694M |   0 | 427k| 214k|1602 | 363 | 21 |  12 |   0 | 2.867081e+04 | 4.483181e+04 |  56.37%| unknown
  158s|     1 |     0 |  1998 |     - |  2694M |   0 | 427k| 214k|1604 | 365 | 22 |  12 |   0 | 2.867081e+04 | 4.483181e+04 |  56.37%| unknown
L 181s|     1 |     0 |  4978 |     - |    rens|   0 | 427k| 214k|1604 | 365 | 24 |  12 |   0 | 2.867081e+04 | 2.867081e+04 |   0.00%| unknown
  181s|     1 |     0 |  4978 |     - |  2723M |   0 | 427k| 214k|1604 | 365 | 24 |  12 |   0 | 2.867081e+04 | 2.867081e+04 |   0.00%| unknown

SCIP Status        : problem is solved [optimal solution found]
Solving Time (sec) : 181.00
Solving Nodes      : 1
Primal Bound       : +2.86708067979426e+04 (2 solutions)
Dual Bound         : +2.86708067979426e+04
Gap                : 0.00 %
  [linear] <auto_c_000214839>: <auto_v_000340572>[B] (+1) +<auto_v_000321604>[B] (+1) +<auto_v_000349730>[B] (+1) +<auto_v_000323569>[B] (+1) +<auto_v_000322942>[B] (+1) +<auto_v_000360234>[B] (+1) +<auto_v_000320460>[B] (+1) +<auto_v_000348461>[B] (+1) +<auto_v_000000548>[B] (+1) +<auto_v_000322259>[B] (+1) +<auto_v_000349131>[B] (+1) +<auto_v_000359596>[B] (+1) +<auto_v_000358924>[B] (+1) <= 12;
;
violation: right hand side is violated by 1
1/2 feasible solution given by solution candidate storage, new primal bound 4.483181e+04

presolving:
(round 1, fast)       654 del vars, 0 del conss, 0 add conss, 0 chg bounds, 0 chg sides, 0 chg coeffs, 0 upgd conss, 0 impls, 214839 clqs
(round 2, exhaustive) 654 del vars, 0 del conss, 0 add conss, 0 chg bounds, 0 chg sides, 0 chg coeffs, 214840 upgd conss, 0 impls, 214839 clqs
   (16.0s) probing: 51/427062 (0.0%) - 0 fixings, 0 aggregations, 0 implications, 0 bound changes
   (16.0s) probing aborted: 50/50 successive totally useless probings
   Deactivated symmetry handling methods, since SCIP was built without symmetry detector (SYM=none).
presolving (3 rounds: 3 fast, 2 medium, 2 exhaustive):
 654 deleted vars, 0 deleted constraints, 0 added constraints, 0 tightened bounds, 0 added holes, 0 changed sides, 0 changed coefficients
 0 implications, 214839 cliques
presolved problem has 427062 variables (427062 bin, 0 int, 0 impl, 0 cont) and 214840 constraints
 214839 constraints of type <setppc>
      1 constraints of type <logicor>
Presolving Time: 16.00
transformed 1/1 original solutions to the transformed problem space

 time | node  | left  |LP iter|LP it/n|mem/heur|mdpt |vars |cons |rows |cuts |sepa|confs|strbr|  dualbound   | primalbound  |  gap   | compl. 
 42.0s|     1 |     0 |  1285 |     - |  2446M |   0 | 427k| 214k|1309 |   0 |  0 |  12 |   0 | 2.350761e+04 | 4.483181e+04 |  90.71%| unknown
 43.0s|     1 |     0 |  1672 |     - |  2446M |   0 | 427k| 214k|1469 | 160 |  1 |  12 |   0 | 2.808190e+04 | 4.483181e+04 |  59.65%| unknown
 48.0s|     1 |     0 |  1740 |     - |  2510M |   0 | 427k| 214k|1505 | 196 |  2 |  12 |   0 | 2.858570e+04 | 4.483181e+04 |  56.83%| unknown
 55.0s|     1 |     0 |  1759 |     - |  2540M |   0 | 427k| 214k|1515 | 206 |  3 |  12 |   0 | 2.858586e+04 | 4.483181e+04 |  56.83%| unknown
 61.0s|     1 |     0 |  1769 |     - |  2542M |   0 | 427k| 214k|1522 | 213 |  4 |  12 |   0 | 2.858586e+04 | 4.483181e+04 |  56.83%| unknown
 70.0s|     1 |     0 |  1802 |     - |  2583M |   0 | 427k| 214k|1545 | 236 |  5 |  12 |   0 | 2.861998e+04 | 4.483181e+04 |  56.65%| unknown
 79.0s|     1 |     0 |  1816 |     - |  2632M |   0 | 427k| 214k|1560 | 251 |  6 |  12 |   0 | 2.861998e+04 | 4.483181e+04 |  56.65%| unknown
 89.0s|     1 |     0 |  1842 |     - |  2652M |   0 | 427k| 214k|1579 | 270 |  7 |  12 |   0 | 2.862849e+04 | 4.483181e+04 |  56.60%| unknown
 97.0s|     1 |     0 |  1870 |     - |  2695M |   0 | 427k| 214k|1596 | 287 |  8 |  12 |   0 | 2.865488e+04 | 4.483181e+04 |  56.45%| unknown
  103s|     1 |     0 |  1877 |     - |  2729M |   0 | 427k| 214k|1603 | 294 |  9 |  12 |   0 | 2.865488e+04 | 4.483181e+04 |  56.45%| unknown
  109s|     1 |     0 |  1896 |     - |  2758M |   0 | 427k| 214k|1615 | 306 | 10 |  12 |   0 | 2.865584e+04 | 4.483181e+04 |  56.45%| unknown
  119s|     1 |     0 |  1917 |     - |  2830M |   0 | 427k| 214k|1582 | 319 | 11 |  12 |   0 | 2.865956e+04 | 4.483181e+04 |  56.43%| unknown
  121s|     1 |     0 |  1936 |     - |  2831M |   0 | 427k| 214k|1588 | 325 | 12 |  12 |   0 | 2.866351e+04 | 4.483181e+04 |  56.41%| unknown
  123s|     1 |     0 |  1951 |     - |  2831M |   0 | 427k| 214k|1592 | 329 | 13 |  12 |   0 | 2.866351e+04 | 4.483181e+04 |  56.41%| unknown
  126s|     1 |     0 |  1954 |     - |  2833M |   0 | 427k| 214k|1596 | 333 | 14 |  12 |   0 | 2.866747e+04 | 4.483181e+04 |  56.39%| unknown
 time | node  | left  |LP iter|LP it/n|mem/heur|mdpt |vars |cons |rows |cuts |sepa|confs|strbr|  dualbound   | primalbound  |  gap   | compl. 
  129s|     1 |     0 |  1973 |     - |  2834M |   0 | 427k| 214k|1602 | 339 | 15 |  12 |   0 | 2.866883e+04 | 4.483181e+04 |  56.38%| unknown
  132s|     1 |     0 |  1982 |     - |  2867M |   0 | 427k| 214k|1610 | 347 | 16 |  12 |   0 | 2.866883e+04 | 4.483181e+04 |  56.38%| unknown
  137s|     1 |     0 |  2003 |     - |  2868M |   0 | 427k| 214k|1599 | 356 | 17 |  12 |   0 | 2.867081e+04 | 4.483181e+04 |  56.37%| unknown
  139s|     1 |     0 |  2013 |     - |  2887M |   0 | 427k| 214k|1602 | 359 | 18 |  12 |   0 | 2.867081e+04 | 4.483181e+04 |  56.37%| unknown
  142s|     1 |     0 |  2021 |     - |  2910M |   0 | 427k| 214k|1607 | 364 | 19 |  12 |   0 | 2.867081e+04 | 4.483181e+04 |  56.37%| unknown
  145s|     1 |     0 |  2046 |     - |  2938M |   0 | 427k| 214k|1612 | 369 | 20 |  12 |   0 | 2.867081e+04 | 4.483181e+04 |  56.37%| unknown
  148s|     1 |     0 |  2058 |     - |  2955M |   0 | 427k| 214k|1617 | 374 | 21 |  12 |   0 | 2.867081e+04 | 4.483181e+04 |  56.37%| unknown
o 165s|     1 |     0 |  5688 |     - |feaspump|   0 | 427k| 214k|1617 | 374 | 23 |  12 |   0 | 2.867081e+04 | 2.872299e+04 |   0.18%| unknown
L 172s|     1 |     0 |  5818 |     - |    rens|   0 | 427k| 214k|1617 | 374 | 23 | 365k|   0 | 2.867081e+04 | 2.867081e+04 |   0.00%| unknown
  172s|     1 |     0 |  5818 |     - |  3018M |   0 | 427k| 214k|1617 | 374 | 23 | 365k|   0 | 2.867081e+04 | 2.867081e+04 |   0.00%| unknown

SCIP Status        : problem is solved [optimal solution found]
Solving Time (sec) : 172.00
Solving Nodes      : 1
Primal Bound       : +2.86708067979426e+04 (3 solutions)
Dual Bound         : +2.86708067979426e+04
Gap                : 0.00 %
  [linear] <auto_c_000214840>: <auto_v_000323610>[B] (+1) +<auto_v_000000490>[B] (+1) +<auto_v_000358392>[B] (+1) +<auto_v_000360249>[B] (+1) +<auto_v_000340573>[B] (+1) +<auto_v_000348476>[B] (+1) +<auto_v_000321606>[B] (+1) +<auto_v_000349786>[B] (+1) +<auto_v_000322288>[B] (+1) +<auto_v_000320951>[B] (+1) +<auto_v_000359579>[B] (+1) +<auto_v_000322916>[B] (+1) +<auto_v_000349114>[B] (+1) <= 12;
;
violation: right hand side is violated by 1
  [linear] <auto_c_000214840>: <auto_v_000323610>[B] (+1) +<auto_v_000000490>[B] (+1) +<auto_v_000358392>[B] (+1) +<auto_v_000360249>[B] (+1) +<auto_v_000340573>[B] (+1) +<auto_v_000348476>[B] (+1) +<auto_v_000321606>[B] (+1) +<auto_v_000349786>[B] (+1) +<auto_v_000322288>[B] (+1) +<auto_v_000320951>[B] (+1) +<auto_v_000359579>[B] (+1) +<auto_v_000322916>[B] (+1) +<auto_v_000349114>[B] (+1) <= 12;
;
violation: right hand side is violated by 1
1/3 feasible solution given by solution candidate storage, new primal bound 4.483181e+04

presolving:
(round 1, fast)       654 del vars, 0 del conss, 0 add conss, 0 chg bounds, 0 chg sides, 0 chg coeffs, 0 upgd conss, 0 impls, 214839 clqs
(round 2, exhaustive) 654 del vars, 0 del conss, 0 add conss, 0 chg bounds, 0 chg sides, 0 chg coeffs, 214841 upgd conss, 0 impls, 214839 clqs
   (16.0s) probing: 51/427062 (0.0%) - 0 fixings, 0 aggregations, 0 implications, 0 bound changes
   (16.0s) probing aborted: 50/50 successive totally useless probings
   Deactivated symmetry handling methods, since SCIP was built without symmetry detector (SYM=none).
presolving (3 rounds: 3 fast, 2 medium, 2 exhaustive):
 654 deleted vars, 0 deleted constraints, 0 added constraints, 0 tightened bounds, 0 added holes, 0 changed sides, 0 changed coefficients
 0 implications, 214839 cliques
presolved problem has 427062 variables (427062 bin, 0 int, 0 impl, 0 cont) and 214841 constraints
 214839 constraints of type <setppc>
      2 constraints of type <logicor>
Presolving Time: 16.00
transformed 1/1 original solutions to the transformed problem space

 time | node  | left  |LP iter|LP it/n|mem/heur|mdpt |vars |cons |rows |cuts |sepa|confs|strbr|  dualbound   | primalbound  |  gap   | compl. 
 43.0s|     1 |     0 |  1297 |     - |  2472M |   0 | 427k| 214k|1310 |   0 |  0 |  12 |   0 | 2.350761e+04 | 4.483181e+04 |  90.71%| unknown
 44.0s|     1 |     0 |  1670 |     - |  2472M |   0 | 427k| 214k|1482 | 172 |  1 |  12 |   0 | 2.807592e+04 | 4.483181e+04 |  59.68%| unknown
 49.0s|     1 |     0 |  1729 |     - |  2525M |   0 | 427k| 214k|1513 | 203 |  2 |  12 |   0 | 2.858570e+04 | 4.483181e+04 |  56.83%| unknown
 55.0s|     1 |     0 |  1778 |     - |  2549M |   0 | 427k| 214k|1532 | 222 |  3 |  12 |   0 | 2.858586e+04 | 4.483181e+04 |  56.83%| unknown
 65.0s|     1 |     0 |  1818 |     - |  2589M |   0 | 427k| 214k|1548 | 238 |  4 |  12 |   0 | 2.858586e+04 | 4.483181e+04 |  56.83%| unknown
 74.0s|     1 |     0 |  1844 |     - |  2621M |   0 | 427k| 214k|1569 | 259 |  5 |  12 |   0 | 2.858897e+04 | 4.483181e+04 |  56.82%| unknown
 85.0s|     1 |     0 |  1864 |     - |  2659M |   0 | 427k| 214k|1582 | 272 |  6 |  12 |   0 | 2.859256e+04 | 4.483181e+04 |  56.80%| unknown
 93.0s|     1 |     0 |  1879 |     - |  2672M |   0 | 427k| 214k|1593 | 283 |  7 |  12 |   0 | 2.860294e+04 | 4.483181e+04 |  56.74%| unknown
  102s|     1 |     0 |  1895 |     - |  2696M |   0 | 427k| 214k|1605 | 295 |  8 |  12 |   0 | 2.861358e+04 | 4.483181e+04 |  56.68%| unknown
  109s|     1 |     0 |  1918 |     - |  2711M |   0 | 427k| 214k|1617 | 307 |  9 |  12 |   0 | 2.864161e+04 | 4.483181e+04 |  56.53%| unknown
  117s|     1 |     0 |  1940 |     - |  2741M |   0 | 427k| 214k|1631 | 321 | 10 |  12 |   0 | 2.865968e+04 | 4.483181e+04 |  56.43%| unknown
  124s|     1 |     0 |  1966 |     - |  2795M |   0 | 427k| 214k|1594 | 333 | 11 |  12 |   0 | 2.866619e+04 | 4.483181e+04 |  56.39%| unknown
  126s|     1 |     0 |  1970 |     - |  2795M |   0 | 427k| 214k|1597 | 336 | 12 |  12 |   0 | 2.866619e+04 | 4.483181e+04 |  56.39%| unknown
  129s|     1 |     0 |  1972 |     - |  2795M |   0 | 427k| 214k|1598 | 337 | 13 |  12 |   0 | 2.866619e+04 | 4.483181e+04 |  56.39%| unknown
  131s|     1 |     0 |  1989 |     - |  2802M |   0 | 427k| 214k|1605 | 344 | 14 |  12 |   0 | 2.866619e+04 | 4.483181e+04 |  56.39%| unknown
 time | node  | left  |LP iter|LP it/n|mem/heur|mdpt |vars |cons |rows |cuts |sepa|confs|strbr|  dualbound   | primalbound  |  gap   | compl. 
  133s|     1 |     0 |  1990 |     - |  2804M |   0 | 427k| 214k|1606 | 345 | 15 |  12 |   0 | 2.867014e+04 | 4.483181e+04 |  56.37%| unknown
  135s|     1 |     0 |  1994 |     - |  2805M |   0 | 427k| 214k|1610 | 349 | 16 |  12 |   0 | 2.867348e+04 | 4.483181e+04 |  56.35%| unknown
  139s|     1 |     0 |  1996 |     - |  2816M |   0 | 427k| 214k|1588 | 350 | 17 |  12 |   0 | 2.867348e+04 | 4.483181e+04 |  56.35%| unknown
  142s|     1 |     0 |  1999 |     - |  2818M |   0 | 427k| 214k|1590 | 352 | 18 |  12 |   0 | 2.867348e+04 | 4.483181e+04 |  56.35%| unknown
  144s|     1 |     0 |  2003 |     - |  2821M |   0 | 427k| 214k|1593 | 355 | 19 |  12 |   0 | 2.867348e+04 | 4.483181e+04 |  56.35%| unknown
  146s|     1 |     0 |  2015 |     - |  2825M |   0 | 427k| 214k|1596 | 358 | 20 |  12 |   0 | 2.867348e+04 | 4.483181e+04 |  56.35%| unknown
  149s|     1 |     0 |  2020 |     - |  2834M |   0 | 427k| 214k|1601 | 363 | 21 |  12 |   0 | 2.867348e+04 | 4.483181e+04 |  56.35%| unknown
  151s|     1 |     0 |  2022 |     - |  2834M |   0 | 427k| 214k|1602 | 364 | 22 |  12 |   0 | 2.867348e+04 | 4.483181e+04 |  56.35%| unknown
o 164s|     1 |     0 |  4589 |     - |feaspump|   0 | 427k| 214k|1602 | 364 | 24 |  12 |   0 | 2.867348e+04 | 2.871056e+04 |   0.13%| unknown
L 169s|     1 |     0 |  4654 |     - |    rens|   0 | 427k| 214k|1602 | 364 | 24 | 368k|   0 | 2.867348e+04 | 2.867348e+04 |   0.00%| unknown
  170s|     1 |     0 |  4654 |     - |  2884M |   0 | 427k| 214k|1602 | 364 | 24 | 368k|   0 | 2.867348e+04 | 2.867348e+04 |   0.00%| unknown

SCIP Status        : problem is solved [optimal solution found]
Solving Time (sec) : 170.00
Solving Nodes      : 1
Primal Bound       : +2.86734789817157e+04 (3 solutions)
Dual Bound         : +2.86734789817157e+04
Gap                : 0.00 %
  [linear] <auto_c_000214841>: <auto_v_000349131>[B] (+1) +<auto_v_000359596>[B] (+1) +<auto_v_000360234>[B] (+1) +<auto_v_000322259>[B] (+1) +<auto_v_000321604>[B] (+1) +<auto_v_000320460>[B] (+1) +<auto_v_000323569>[B] (+1) +<auto_v_000349731>[B] (+1) +<auto_v_000322942>[B] (+1) +<auto_v_000358924>[B] (+1) +<auto_v_000324224>[B] (+1) +<auto_v_000348461>[B] (+1) +<auto_v_000000548>[B] (+1) +<auto_v_000340572>[B] (+1) <= 13;
;
violation: right hand side is violated by 0.999999999999998
  [linear] <auto_c_000214841>: <auto_v_000349131>[B] (+1) +<auto_v_000359596>[B] (+1) +<auto_v_000360234>[B] (+1) +<auto_v_000322259>[B] (+1) +<auto_v_000321604>[B] (+1) +<auto_v_000320460>[B] (+1) +<auto_v_000323569>[B] (+1) +<auto_v_000349731>[B] (+1) +<auto_v_000322942>[B] (+1) +<auto_v_000358924>[B] (+1) +<auto_v_000324224>[B] (+1) +<auto_v_000348461>[B] (+1) +<auto_v_000000548>[B] (+1) +<auto_v_000340572>[B] (+1) <= 13;
;
violation: right hand side is violated by 1
1/3 feasible solution given by solution candidate storage, new primal bound 4.483181e+04

presolving:
(round 1, fast)       654 del vars, 0 del conss, 0 add conss, 0 chg bounds, 0 chg sides, 0 chg coeffs, 0 upgd conss, 0 impls, 214839 clqs
(round 2, exhaustive) 654 del vars, 0 del conss, 0 add conss, 0 chg bounds, 0 chg sides, 0 chg coeffs, 214842 upgd conss, 0 impls, 214839 clqs
   (16.0s) probing: 51/427062 (0.0%) - 0 fixings, 0 aggregations, 0 implications, 0 bound changes
   (16.0s) probing aborted: 50/50 successive totally useless probings
   Deactivated symmetry handling methods, since SCIP was built without symmetry detector (SYM=none).
presolving (3 rounds: 3 fast, 2 medium, 2 exhaustive):
 654 deleted vars, 0 deleted constraints, 0 added constraints, 0 tightened bounds, 0 added holes, 0 changed sides, 0 changed coefficients
 0 implications, 214839 cliques
presolved problem has 427062 variables (427062 bin, 0 int, 0 impl, 0 cont) and 214842 constraints
 214839 constraints of type <setppc>
      3 constraints of type <logicor>
Presolving Time: 15.00
transformed 1/1 original solutions to the transformed problem space

 time | node  | left  |LP iter|LP it/n|mem/heur|mdpt |vars |cons |rows |cuts |sepa|confs|strbr|  dualbound   | primalbound  |  gap   | compl. 
 43.0s|     1 |     0 |  1303 |     - |  2481M |   0 | 427k| 214k|1311 |   0 |  0 |  12 |   0 | 2.350761e+04 | 4.483181e+04 |  90.71%| unknown
 44.0s|     1 |     0 |  1596 |     - |  2481M |   0 | 427k| 214k|1478 | 167 |  1 |  12 |   0 | 2.808190e+04 | 4.483181e+04 |  59.65%| unknown
 48.0s|     1 |     0 |  1675 |     - |  2519M |   0 | 427k| 214k|1514 | 203 |  2 |  12 |   0 | 2.858570e+04 | 4.483181e+04 |  56.83%| unknown
 55.0s|     1 |     0 |  1704 |     - |  2553M |   0 | 427k| 214k|1532 | 221 |  3 |  12 |   0 | 2.858586e+04 | 4.483181e+04 |  56.83%| unknown
 65.0s|     1 |     0 |  1730 |     - |  2586M |   0 | 427k| 214k|1549 | 238 |  4 |  12 |   0 | 2.858586e+04 | 4.483181e+04 |  56.83%| unknown
 79.0s|     1 |     0 |  1732 |     - |  2618M |   0 | 427k| 214k|1551 | 240 |  5 |  12 |   0 | 2.858586e+04 | 4.483181e+04 |  56.83%| unknown
 93.0s|     1 |     0 |  1771 |     - |  2618M |   0 | 427k| 214k|1574 | 263 |  6 |  12 |   0 | 2.859517e+04 | 4.483181e+04 |  56.78%| unknown
  105s|     1 |     0 |  1792 |     - |  2649M |   0 | 427k| 214k|1589 | 278 |  7 |  12 |   0 | 2.862066e+04 | 4.483181e+04 |  56.64%| unknown
  118s|     1 |     0 |  1819 |     - |  2655M |   0 | 427k| 214k|1603 | 292 |  8 |  12 |   0 | 2.863641e+04 | 4.483181e+04 |  56.56%| unknown
  128s|     1 |     0 |  1826 |     - |  2665M |   0 | 427k| 214k|1608 | 297 |  9 |  12 |   0 | 2.864345e+04 | 4.483181e+04 |  56.52%| unknown
  138s|     1 |     0 |  1841 |     - |  2671M |   0 | 427k| 214k|1619 | 308 | 10 |  12 |   0 | 2.864358e+04 | 4.483181e+04 |  56.52%| unknown
  152s|     1 |     0 |  1862 |     - |  2754M |   0 | 427k| 214k|1585 | 320 | 11 |  12 |   0 | 2.864853e+04 | 4.483181e+04 |  56.49%| unknown
  158s|     1 |     0 |  1872 |     - |  2791M |   0 | 427k| 214k|1595 | 330 | 12 |  12 |   0 | 2.866223e+04 | 4.483181e+04 |  56.41%| unknown
  162s|     1 |     0 |  1879 |     - |  2809M |   0 | 427k| 214k|1600 | 335 | 13 |  12 |   0 | 2.866619e+04 | 4.483181e+04 |  56.39%| unknown
  165s|     1 |     0 |  1891 |     - |  2834M |   0 | 427k| 214k|1610 | 345 | 14 |  12 |   0 | 2.867014e+04 | 4.483181e+04 |  56.37%| unknown
 time | node  | left  |LP iter|LP it/n|mem/heur|mdpt |vars |cons |rows |cuts |sepa|confs|strbr|  dualbound   | primalbound  |  gap   | compl. 
  169s|     1 |     0 |  1902 |     - |  2888M |   0 | 427k| 214k|1621 | 356 | 15 |  12 |   0 | 2.867348e+04 | 4.483181e+04 |  56.35%| unknown
  172s|     1 |     0 |  1914 |     - |  2904M |   0 | 427k| 214k|1627 | 362 | 16 |  12 |   0 | 2.867348e+04 | 4.483181e+04 |  56.35%| unknown
  176s|     1 |     0 |  1919 |     - |  2904M |   0 | 427k| 214k|1607 | 365 | 17 |  12 |   0 | 2.867348e+04 | 4.483181e+04 |  56.35%| unknown
  179s|     1 |     0 |  1922 |     - |  2904M |   0 | 427k| 214k|1609 | 367 | 18 |  12 |   0 | 2.867348e+04 | 4.483181e+04 |  56.35%| unknown
  181s|     1 |     0 |  1924 |     - |  2904M |   0 | 427k| 214k|1611 | 369 | 19 |  12 |   0 | 2.867348e+04 | 4.483181e+04 |  56.35%| unknown
  184s|     1 |     0 |  1930 |     - |  2905M |   0 | 427k| 214k|1614 | 372 | 20 |  12 |   0 | 2.867348e+04 | 4.483181e+04 |  56.35%| unknown
  187s|     1 |     0 |  1937 |     - |  2905M |   0 | 427k| 214k|1617 | 375 | 21 |  12 |   0 | 2.867348e+04 | 4.483181e+04 |  56.35%| unknown
o 207s|     1 |     0 |  4483 |     - |feaspump|   0 | 427k| 214k|1617 | 375 | 23 |  12 |   0 | 2.867348e+04 | 2.877056e+04 |   0.34%| unknown
L 217s|     1 |     0 |  4743 |     - |    rens|   0 | 427k| 214k|1617 | 375 | 23 | 335k|   0 | 2.867348e+04 | 2.867348e+04 |   0.00%| unknown
  217s|     1 |     0 |  4743 |     - |  2947M |   0 | 427k| 214k|1617 | 375 | 23 | 335k|   0 | 2.867348e+04 | 2.867348e+04 |   0.00%| unknown

SCIP Status        : problem is solved [optimal solution found]
Solving Time (sec) : 217.00
Solving Nodes      : 1
Primal Bound       : +2.86734789817157e+04 (3 solutions)
Dual Bound         : +2.86734789817157e+04
Gap                : 0.00 %
Trying to solve problem with DFJ2 version 2.0 Method...
181.0
Cicle:  1
353.0
Cicle:  2
523.0
Cicle:  3
740.0
Route:  [[0, 490], [1, 3], [2, 1], [3, 4], [4, 2], [5, 6], [6, 7], [7, 8], [8, 9], [9, 5], [10, 11], [11, 61], [12, 10], [13, 12], [14, 16], [15, 630], [16, 17], [17, 18], [18, 49], [19, 23], [20, 19], [21, 22], [22, 27], [23, 20], [24, 25], [25, 26], [26, 24], [27, 30], [28, 21], [29, 28], [30, 31], [31, 32], [32, 33], [33, 37], [34, 29], [35, 34], [36, 35], [37, 38], [38, 41], [39, 36], [40, 39], [41, 43], [42, 40], [43, 44], [44, 45], [45, 47], [46, 42], [47, 48], [48, 50], [49, 52], [50, 51], [51, 46], [52, 53], [53, 54], [54, 55], [55, 57], [56, 59], [57, 58], [58, 56], [59, 60], [60, 14], [61, 13], [62, 63], [63, 71], [64, 67], [65, 64], [66, 65], [67, 68], [68, 66], [69, 70], [70, 62], [71, 72], [72, 69], [73, 75], [74, 78], [75, 76], [76, 73], [77, 74], [78, 77], [79, 83], [80, 86], [81, 85], [82, 79], [83, 84], [84, 82], [85, 80], [86, 87], [87, 88], [88, 90], [89, 81], [90, 93], [91, 95], [92, 89], [93, 91], [94, 92], [95, 94], [96, 97], [97, 98], [98, 96], [99, 101], [100, 99], [101, 100], [102, 103], [103, 104], [104, 102], [105, 297], [106, 110], [107, 106], [108, 107], [109, 108], [110, 114], [111, 112], [112, 116], [113, 109], [114, 115], [115, 111], [116, 117], [117, 113], [118, 122], [119, 118], [120, 119], [121, 120], [122, 123], [123, 124], [124, 125], [125, 121], [126, 130], [127, 126], [128, 127], [129, 128], [130, 131], [131, 132], [132, 133], [133, 129], [134, 135], [135, 136], [136, 137], [137, 141], [138, 134], [139, 138], [140, 139], [141, 140], [142, 143], [143, 144], [144, 145], [145, 149], [146, 142], [147, 151], [148, 147], [149, 148], [150, 146], [151, 150], [152, 156], [153, 152], [154, 158], [155, 154], [156, 157], [157, 153], [158, 162], [159, 155], [160, 159], [161, 160], [162, 163], [163, 164], [164, 168], [165, 161], [166, 170], [167, 166], [168, 169], [169, 165], [170, 174], [171, 167], [172, 173], [173, 177], [174, 178], [175, 171], [176, 172], [177, 176], [178, 179], [179, 175], [180, 181], [181, 185], [182, 186], [183, 182], [184, 180], [185, 189], [186, 187], [187, 183], [188, 184], [189, 193], [190, 191], [191, 195], [192, 188], [193, 192], [194, 190], [195, 199], [196, 200], [197, 196], [198, 194], [199, 198], [200, 201], [201, 197], [202, 203], [203, 207], [204, 205], [205, 209], [206, 202], [207, 211], [208, 204], [209, 213], [210, 206], [211, 210], [212, 208], [213, 217], [214, 218], [215, 214], [216, 212], [217, 216], [218, 222], [219, 215], [220, 224], [221, 220], [222, 226], [223, 219], [224, 228], [225, 221], [226, 230], [227, 223], [228, 229], [229, 225], [230, 231], [231, 227], [232, 236], [233, 232], [234, 238], [235, 234], [236, 237], [237, 233], [238, 242], [239, 235], [240, 239], [241, 240], [242, 246], [243, 247], [244, 243], [245, 241], [246, 250], [247, 251], [248, 244], [249, 245], [250, 254], [251, 255], [252, 248], [253, 249], [254, 258], [255, 259], [256, 252], [257, 253], [258, 262], [259, 260], [260, 256], [261, 257], [262, 266], [263, 264], [264, 265], [265, 261], [266, 270], [267, 263], [268, 267], [269, 268], [270, 274], [271, 275], [272, 271], [273, 269], [274, 278], [275, 276], [276, 272], [277, 273], [278, 279], [279, 280], [280, 281], [281, 277], [282, 286], [283, 282], [284, 283], [285, 284], [286, 290], [287, 288], [288, 289], [289, 285], [290, 294], [291, 287], [292, 291], [293, 292], [294, 295], [295, 296], [296, 105], [297, 293], [298, 302], [299, 298], [300, 304], [301, 300], [302, 306], [303, 299], [304, 305], [305, 301], [306, 310], [307, 303], [308, 307], [309, 308], [310, 311], [311, 312], [312, 313], [313, 309], [314, 318], [315, 314], [316, 320], [317, 316], [318, 322], [319, 315], [320, 319], [321, 317], [322, 323], [323, 324], [324, 328], [325, 321], [326, 327], [327, 331], [328, 332], [329, 325], [330, 326], [331, 330], [332, 336], [333, 329], [334, 338], [335, 334], [336, 335], [337, 333], [338, 342], [339, 340], [340, 344], [341, 337], [342, 343], [343, 339], [344, 345], [345, 341], [346, 347], [347, 351], [348, 352], [349, 348], [350, 346], [351, 350], [352, 353], [353, 349], [354, 355], [355, 359], [356, 360], [357, 356], [358, 354], [359, 363], [360, 364], [361, 357], [362, 358], [363, 367], [364, 365], [365, 361], [366, 362], [367, 371], [368, 369], [369, 373], [370, 366], [371, 372], [372, 368], [373, 377], [374, 370], [375, 374], [376, 375], [377, 376], [378, 382], [379, 378], [380, 379], [381, 380], [382, 383], [383, 387], [384, 385], [385, 381], [386, 390], [387, 386], [388, 384], [389, 388], [390, 391], [391, 392], [392, 393], [393, 389], [394, 395], [395, 399], [396, 397], [397, 401], [398, 394], [399, 403], [400, 396], [401, 405], [402, 398], [403, 402], [404, 400], [405, 409], [406, 410], [407, 406], [408, 404], [409, 408], [410, 411], [411, 407], [412, 413], [413, 417], [414, 418], [415, 414], [416, 412], [417, 421], [418, 419], [419, 415], [420, 416], [421, 420], [422, 426], [423, 422], [424, 425], [425, 429], [426, 427], [427, 423], [428, 424], [429, 433], [430, 431], [431, 435], [432, 428], [433, 432], [434, 430], [435, 439], [436, 440], [437, 436], [438, 434], [439, 438], [440, 441], [441, 437], [442, 446], [443, 442], [444, 445], [445, 449], [446, 450], [447, 443], [448, 444], [449, 448], [450, 454], [451, 447], [452, 451], [453, 452], [454, 455], [455, 456], [456, 457], [457, 453], [458, 459], [459, 463], [460, 461], [461, 465], [462, 458], [463, 467], [464, 460], [465, 464], [466, 462], [467, 466], [468, 472], [469, 468], [470, 474], [471, 470], [472, 473], [473, 469], [474, 475], [475, 471], [476, 480], [477, 476], [478, 479], [479, 483], [480, 481], [481, 477], [482, 478], [483, 484], [484, 485], [485, 489], [486, 482], [487, 486], [488, 487], [489, 488], [490, 491], [491, 492], [492, 520], [493, 494], [494, 495], [495, 534], [496, 521], [497, 496], [498, 499], [499, 524], [500, 536], [501, 537], [502, 501], [503, 504], [504, 559], [505, 560], [506, 505], [507, 506], [508, 526], [509, 508], [510, 511], [511, 527], [512, 528], [513, 529], [514, 513], [515, 530], [516, 545], [517, 516], [518, 547], [519, 518], [520, 493], [521, 535], [522, 497], [523, 498], [524, 500], [525, 502], [526, 507], [527, 510], [528, 565], [529, 566], [530, 514], [531, 517], [532, 548], [533, 532], [534, 550], [535, 551], [536, 557], [537, 558], [538, 525], [539, 503], [540, 541], [541, 561], [542, 509], [543, 512], [544, 515], [545, 570], [546, 531], [547, 571], [548, 0], [549, 533], [550, 549], [551, 552], [552, 553], [553, 522], [554, 523], [555, 554], [556, 555], [557, 556], [558, 538], [559, 539], [560, 540], [561, 562], [562, 542], [563, 543], [564, 563], [565, 564], [566, 567], [567, 568], [568, 569], [569, 544], [570, 546], [571, 519], [572, 15], [573, 572], [574, 573], [575, 602], [576, 575], [577, 603], [578, 577], [579, 604], [580, 605], [581, 580], [582, 606], [583, 619], [584, 583], [585, 621], [586, 585], [587, 588], [588, 589], [589, 608], [590, 591], [591, 624], [592, 609], [593, 592], [594, 610], [595, 596], [596, 612], [597, 626], [598, 599], [599, 613], [600, 601], [601, 653], [602, 574], [603, 578], [604, 635], [605, 636], [606, 581], [607, 584], [608, 590], [609, 593], [610, 647], [611, 595], [612, 597], [613, 628], [614, 615], [615, 631], [616, 576], [617, 579], [618, 582], [619, 640], [620, 607], [621, 641], [622, 642], [623, 622], [624, 644], [625, 594], [626, 651], [627, 598], [628, 652], [629, 600], [630, 614], [631, 632], [632, 616], [633, 617], [634, 633], [635, 634], [636, 637], [637, 638], [638, 639], [639, 618], [640, 620], [641, 586], [642, 587], [643, 623], [644, 643], [645, 625], [646, 645], [647, 646], [648, 611], [649, 648], [650, 649], [651, 650], [652, 627], [653, 629]]
A Solution was found
Objective value: 28673.5
Problem solved in 4743 iterations
Problem solved in 1 nodes
Final Route Configuration succesfully created at:
data/routes/p654.csv
